results_rootrelaxation/bin012_090_009.srr.sol
solution status: optimal solution found
objective value:                                   32
_var253_                           0.0823529411764685 	(obj:4)
_var393_                            0.141176470588235 	(obj:5)
_var629_                            0.341176470588234 	(obj:4)
_var690_                             0.36470588235294 	(obj:4)
_var693_                            0.070588235294114 	(obj:3)
_var706_                           0.0705882352941226 	(obj:3)
_var707_                           0.0235294117647048 	(obj:4)
_var708_                            0.458823529411764 	(obj:2)
_var713_                            0.199999999999999 	(obj:3)
_var722_                           0.0235294117647058 	(obj:3)
_var740_                            0.458823529411764 	(obj:3)
_var742_                             0.63529411764706 	(obj:3)
_var743_                             0.23529411764706 	(obj:4)
_var745_                           0.0941176470588263 	(obj:5)
_var746_                            0.423529411764705 	(obj:4)
_var747_                           0.0235294117647054 	(obj:2)
_var751_                            0.117647058823527 	(obj:4)
_var755_                            0.458823529411763 	(obj:2)
_var759_                            0.270588235294119 	(obj:2)
_var760_                            0.482352941176469 	(obj:1)
_var767_                            0.176470588235296 	(obj:5)
_var769_                            0.176470588235296 	(obj:1)
_var781_                           0.0823529411764702 	(obj:4)
_var791_                            0.458823529411764 	(obj:2)
_var792_                            0.176470588235297 	(obj:3)
_var798_                             0.31764705882353 	(obj:4)
_var803_                            0.141176470588235 	(obj:3)
_var804_                             0.48235294117647 	(obj:2)
_var810_                            0.517647058823531 	(obj:3)
_var820_                           0.0235294117647044 	(obj:5)
_var826_                           0.0352941176470611 	(obj:2)
_var837_                            0.199999999999997 	(obj:3)
_var839_                            0.541176470588237 	(obj:2)
_var844_                           0.0823529411764732 	(obj:3)
_var849_                            0.270588235294117 	(obj:3)
_var857_                            0.176470588235296 	(obj:4)
_var858_                             0.36470588235294 	(obj:2)
_var859_                             0.10588235294118 	(obj:4)
_var861_                            0.247058823529411 	(obj:3)
_var864_                           0.0470588235294093 	(obj:5)
_var865_                            0.258823529411765 	(obj:3)
_var866_                            0.341176470588234 	(obj:1)
_var877_                           0.0235294117647065 	(obj:4)
_var879_                            0.117647058823529 	(obj:3)
_var880_                            0.423529411764705 	(obj:4)
_var881_                            0.176470588235293 	(obj:5)
_var886_                           0.0235294117647064 	(obj:4)
_var890_                           0.0352941176470581 	(obj:4)
