results_rootrelaxation/bin012_090_009.srr.log
SCIP version 8.0.3.5 [precision: 8 byte] [memory: block] [mode: optimized] [LP solver: Soplex 6.0.1.3] [GitHash: 438792519e]
Copyright (c) 2002-2023 Zuse Institute Berlin (ZIB)

External libraries: 
  Readline 8.1         GNU library for command line editing (gnu.org/s/readline)
  Soplex 6.0.1.3       Linear Programming Solver developed at Zuse Institute Berlin (soplex.zib.de) [GitHash: 713be0fe]
  CppAD 20180000.0     Algorithmic Differentiation of C++ algorithms developed by B. Bell (github.com/coin-or/CppAD)
  ZLIB 1.2.11          General purpose compression library by J. Gailly and M. Adler (zlib.net)
  bliss 0.77           Computing Graph Automorphism Groups by T. Junttila and P. Kaski (www.tcs.hut.fi/Software/bliss/)

user parameter file <scip.set> not found - using default parameters

srr/relaxation = TRUE

read problem <instances/bin012_090_009.srr>
============

Original problem: 
original problem has 0 variables (0 bin, 0 int, 0 impl, 0 cont) and 77 constraints

presolving:
presolving (1 rounds: 1 fast, 1 medium, 1 exhaustive):
 0 deleted vars, 0 deleted constraints, 0 added constraints, 0 tightened bounds, 0 added holes, 0 changed sides, 0 changed coefficients
 0 implications, 0 cliques
presolved problem has 0 variables (0 bin, 0 int, 0 impl, 0 cont) and 77 constraints
     77 constraints of type <linear>
Presolving Time: 0.00

 time | node  | left  |LP iter|LP it/n|mem/heur|mdpt |vars |cons |rows |cuts |sepa|confs|strbr|  dualbound   | primalbound  |  gap   | compl. 
  0.0s|     1 |     0 |     1 |     - |   710k |   0 |   1 |  77 |  77 |   0 |  0 |   0 |   0 |      --      |      --      |    Inf | unknown
r 0.0s|     1 |     0 |   641 |     - |simplero|   0 | 678 |  77 |  77 |   0 |  0 |   0 |   0 |      --      | 4.568449e+01 |    Inf | unknown
r 0.0s|     1 |     0 |   651 |     - |simplero|   0 | 689 |  77 |  77 |   0 |  0 |   0 |   0 |      --      | 4.536512e+01 |    Inf | unknown
r 0.0s|     1 |     0 |   698 |     - |simplero|   0 | 700 |  77 |  77 |   0 |  0 |   0 |   0 |      --      | 4.393816e+01 |    Inf | unknown
r 0.0s|     1 |     0 |   733 |     - |simplero|   0 | 711 |  77 |  77 |   0 |  0 |   0 |   0 |      --      | 4.269928e+01 |    Inf | unknown
r 0.1s|     1 |     0 |   810 |     - |simplero|   0 | 722 |  77 |  77 |   0 |  0 |   0 |   0 |      --      | 4.047710e+01 |    Inf | unknown
r 0.1s|     1 |     0 |   867 |     - |simplero|   0 | 733 |  77 |  77 |   0 |  0 |   0 |   0 |      --      | 3.934557e+01 |    Inf | unknown
r 0.1s|     1 |     0 |   960 |     - |simplero|   0 | 744 |  77 |  77 |   0 |  0 |   0 |   0 |      --      | 3.766212e+01 |    Inf | unknown
r 0.1s|     1 |     0 |  1005 |     - |simplero|   0 | 755 |  77 |  77 |   0 |  0 |   0 |   0 |      --      | 3.665339e+01 |    Inf | unknown
r 0.1s|     1 |     0 |  1029 |     - |simplero|   0 | 755 |  77 |  77 |   0 |  0 |   0 |   0 |      --      | 3.642030e+01 |    Inf | unknown
r 0.1s|     1 |     0 |  1090 |     - |simplero|   0 | 766 |  77 |  77 |   0 |  0 |   0 |   0 |      --      | 3.550587e+01 |    Inf | unknown
r 0.1s|     1 |     0 |  1116 |     - |simplero|   0 | 766 |  77 |  77 |   0 |  0 |   0 |   0 |      --      | 3.531788e+01 |    Inf | unknown
r 0.1s|     1 |     0 |  1126 |     - |simplero|   0 | 766 |  77 |  77 |   0 |  0 |   0 |   0 |      --      | 3.530822e+01 |    Inf | unknown
r 0.1s|     1 |     0 |  1166 |     - |simplero|   0 | 777 |  77 |  77 |   0 |  0 |   0 |   0 |      --      | 3.467243e+01 |    Inf | unknown
r 0.1s|     1 |     0 |  1171 |     - |simplero|   0 | 777 |  77 |  77 |   0 |  0 |   0 |   0 |      --      | 3.465087e+01 |    Inf | unknown
 time | node  | left  |LP iter|LP it/n|mem/heur|mdpt |vars |cons |rows |cuts |sepa|confs|strbr|  dualbound   | primalbound  |  gap   | compl. 
r 0.1s|     1 |     0 |  1175 |     - |simplero|   0 | 777 |  77 |  77 |   0 |  0 |   0 |   0 |      --      | 3.464734e+01 |    Inf | unknown
r 0.1s|     1 |     0 |  1198 |     - |simplero|   0 | 788 |  77 |  77 |   0 |  0 |   0 |   0 |      --      | 3.433104e+01 |    Inf | unknown
r 0.1s|     1 |     0 |  1213 |     - |simplero|   0 | 788 |  77 |  77 |   0 |  0 |   0 |   0 |      --      | 3.426101e+01 |    Inf | unknown
r 0.1s|     1 |     0 |  1221 |     - |simplero|   0 | 788 |  77 |  77 |   0 |  0 |   0 |   0 |      --      | 3.425000e+01 |    Inf | unknown
r 0.1s|     1 |     0 |  1265 |     - |simplero|   0 | 799 |  77 |  77 |   0 |  0 |   0 |   0 |      --      | 3.387633e+01 |    Inf | unknown
r 0.1s|     1 |     0 |  1311 |     - |simplero|   0 | 810 |  77 |  77 |   0 |  0 |   0 |   0 |      --      | 3.327038e+01 |    Inf | unknown
r 0.1s|     1 |     0 |  1331 |     - |simplero|   0 | 810 |  77 |  77 |   0 |  0 |   0 |   0 |      --      | 3.316369e+01 |    Inf | unknown
r 0.1s|     1 |     0 |  1334 |     - |simplero|   0 | 810 |  77 |  77 |   0 |  0 |   0 |   0 |      --      | 3.316293e+01 |    Inf | unknown
r 0.1s|     1 |     0 |  1377 |     - |simplero|   0 | 821 |  77 |  77 |   0 |  0 |   0 |   0 |      --      | 3.289139e+01 |    Inf | unknown
r 0.1s|     1 |     0 |  1394 |     - |simplero|   0 | 821 |  77 |  77 |   0 |  0 |   0 |   0 |      --      | 3.287536e+01 |    Inf | unknown
r 0.1s|     1 |     0 |  1414 |     - |simplero|   0 | 832 |  77 |  77 |   0 |  0 |   0 |   0 |      --      | 3.279901e+01 |    Inf | unknown
r 0.1s|     1 |     0 |  1430 |     - |simplero|   0 | 832 |  77 |  77 |   0 |  0 |   0 |   0 |      --      | 3.277308e+01 |    Inf | unknown
r 0.1s|     1 |     0 |  1439 |     - |simplero|   0 | 832 |  77 |  77 |   0 |  0 |   0 |   0 |      --      | 3.276150e+01 |    Inf | unknown
r 0.1s|     1 |     0 |  1474 |     - |simplero|   0 | 842 |  77 |  77 |   0 |  0 |   0 |   0 |      --      | 3.256703e+01 |    Inf | unknown
r 0.1s|     1 |     0 |  1497 |     - |simplero|   0 | 842 |  77 |  77 |   0 |  0 |   0 |   0 |      --      | 3.249557e+01 |    Inf | unknown
 time | node  | left  |LP iter|LP it/n|mem/heur|mdpt |vars |cons |rows |cuts |sepa|confs|strbr|  dualbound   | primalbound  |  gap   | compl. 
r 0.1s|     1 |     0 |  1501 |     - |simplero|   0 | 842 |  77 |  77 |   0 |  0 |   0 |   0 |      --      | 3.249346e+01 |    Inf | unknown
  0.1s|     1 |     0 |  1521 |     - |  4168k |   0 | 853 |  77 |  77 |   0 |  0 |   0 |   0 |      --      | 3.249346e+01 |    Inf | unknown
r 0.1s|     1 |     0 |  1521 |     - |simplero|   0 | 853 |  77 |  77 |   0 |  0 |   0 |   0 |      --      | 3.244828e+01 |    Inf | unknown
r 0.1s|     1 |     0 |  1552 |     - |simplero|   0 | 863 |  77 |  77 |   0 |  0 |   0 |   0 |      --      | 3.228837e+01 |    Inf | unknown
r 0.1s|     1 |     0 |  1556 |     - |simplero|   0 | 863 |  77 |  77 |   0 |  0 |   0 |   0 |      --      | 3.228520e+01 |    Inf | unknown
r 0.1s|     1 |     0 |  1599 |     - |simplero|   0 | 872 |  77 |  77 |   0 |  0 |   0 |   0 |      --      | 3.215172e+01 |    Inf | unknown
r 0.1s|     1 |     0 |  1624 |     - |simplero|   0 | 881 |  77 |  77 |   0 |  0 |   0 |   0 |      --      | 3.207653e+01 |    Inf | unknown
r 0.1s|     1 |     0 |  1629 |     - |simplero|   0 | 881 |  77 |  77 |   0 |  0 |   0 |   0 |      --      | 3.207565e+01 |    Inf | unknown
r 0.1s|     1 |     0 |  1635 |     - |simplero|   0 | 881 |  77 |  77 |   0 |  0 |   0 |   0 |      --      | 3.207280e+01 |    Inf | unknown
r 0.1s|     1 |     0 |  1637 |     - |simplero|   0 | 881 |  77 |  77 |   0 |  0 |   0 |   0 |      --      | 3.207237e+01 |    Inf | unknown
r 0.1s|     1 |     0 |  1639 |     - |simplero|   0 | 881 |  77 |  77 |   0 |  0 |   0 |   0 |      --      | 3.207225e+01 |    Inf | unknown
r 0.1s|     1 |     0 |  1656 |     - |simplero|   0 | 889 |  77 |  77 |   0 |  0 |   0 |   0 |      --      | 3.201235e+01 |    Inf | unknown
r 0.1s|     1 |     0 |  1659 |     - |simplero|   0 | 897 |  77 |  77 |   0 |  0 |   0 |   0 |      --      | 3.200000e+01 |    Inf | unknown
  0.1s|     1 |     0 |  1659 |     - |  4390k |   0 | 897 |  77 |  77 |   0 |  0 |   0 |   0 | 3.200000e+01 | 3.200000e+01 |   0.00%| unknown
  0.1s|     1 |     0 |  1659 |     - |  4390k |   0 | 897 |  77 |  77 |   0 |  0 |   0 |   0 | 3.200000e+01 | 3.200000e+01 |   0.00%| unknown

SCIP Status        : problem is solved [optimal solution found]
Solving Time (sec) : 0.09
Solving Nodes      : 1
Primal Bound       : +3.20000000000000e+01 (41 solutions)
Dual Bound         : +3.20000000000000e+01
Gap                : 0.00 %

written transformed problem to file <results_rootrelaxation/bin012_090_009.srr.lp>
written transformed problem to file <results_rootrelaxation/bin012_090_009.srr.cip>

written solution information to file <results_rootrelaxation/bin012_090_009.srr.sol>



